Academic license - for non-commercial use only
Gurobi Optimizer version 9.0.3 build v9.0.3rc0 (mac64)
Optimize a model with 96164 rows, 90720 columns and 526770 nonzeros
Model fingerprint: 0x59caa814
Variable types: 0 continuous, 90720 integer (90720 binary)
Coefficient statistics:
  Matrix range     [1e+00, 1e+00]
  Objective range  [1e+01, 3e+04]
  Bounds range     [1e+00, 1e+00]
  RHS range        [1e+00, 2e+02]
Presolve added 0 rows and 2470 columns
Presolve removed 30 rows and 0 columns
Presolve time: 1.47s
Presolved: 96134 rows, 93190 columns, 384210 nonzeros
Variable types: 0 continuous, 93190 integer (93190 binary)
Found heuristic solution: objective 343342.00000

Concurrent LP optimizer: dual simplex and barrier
Showing barrier log only...

Root barrier log...

Ordering time: 0.24s

Barrier statistics:
 Dense cols : 360
 AA' NZ     : 2.982e+05
 Factor NZ  : 1.555e+06 (roughly 90 MBytes of memory)
 Factor Ops : 4.160e+08 (less than 1 second per iteration)
 Threads    : 3

                  Objective                Residual
Iter       Primal          Dual         Primal    Dual     Compl     Time
   0   7.65915620e+07 -1.06150750e+08  2.12e+02 3.09e+01  9.52e+03     3s
   1   1.05584171e+06 -1.17997124e+08  4.81e+00 3.45e+03  5.85e+02     3s
   2   1.05584894e+06  8.59083670e+13  4.81e+00 4.30e+13  5.85e+02     3s
   3   4.93962682e+05  6.43708543e+13  8.06e-01 3.22e+13  3.91e+02     3s
   4   7.23464777e+05  5.83522285e+13  1.10e+01 2.92e+13  5.82e+02     3s
   5   6.47611233e+05  4.09423817e+13  8.57e+00 2.05e+13  4.27e+02     3s
   6   7.10720862e+05  2.95620704e+13  6.52e+00 1.48e+13  3.37e+02     3s
   7   7.15331856e+05  1.05656374e+13  7.04e+00 5.28e+12  1.19e+02     3s
   8   6.99759062e+05  5.92057510e+12  6.71e+00 3.10e+12  3.85e+04     3s
   9   6.87735201e+05  2.95267335e+12  6.44e+00 2.91e+12  7.43e+05     4s
  10   6.94216602e+05  2.97984386e+12  6.39e+00 2.90e+12  7.63e+05     4s
  11   1.07735520e+10 -1.06150750e+08  3.00e+04 3.09e+01  1.27e+06     4s
  12   7.08812603e+08 -2.17464874e+07  2.00e+03 7.41e+02  1.47e+04     4s
  13   3.28512429e+07 -2.46796062e+06  9.99e+01 3.60e+02  9.13e+01     4s
  14   9.77467378e+06 -5.46231594e+05  3.02e+01 2.22e+01  1.27e+01     4s
  15   5.44784905e+06 -1.37538917e+05  1.67e+01 3.81e+00  5.39e+00     4s
  16   3.26505839e+06  8.25725007e+04  9.82e+00 1.75e+00  2.51e+00     4s
  17   2.42997857e+06  1.60308284e+05  7.11e+00 1.12e+00  1.68e+00     4s
  18   1.84197880e+06  1.93279445e+05  5.19e+00 7.80e-01  1.21e+00     4s
  19   1.39456983e+06  2.21154477e+05  3.72e+00 4.98e-01  8.56e-01     5s
  20   1.04383633e+06  2.40955191e+05  2.55e+00 4.57e-01  5.90e-01     5s
  21   8.57333562e+05  2.47654039e+05  1.93e+00 3.80e-01  4.62e-01     5s
  22   7.17057131e+05  2.63064352e+05  1.46e+00 3.43e-01  3.35e-01     5s
  23   6.27219405e+05  2.71558920e+05  1.16e+00 3.74e-01  2.57e-01     5s
  24   5.31451219e+05  2.76841909e+05  8.30e-01 3.24e-01  1.85e-01     5s
  25   4.72418145e+05  2.80693435e+05  6.29e-01 2.20e-01  1.39e-01     5s
  26   4.28682005e+05  2.82495704e+05  4.78e-01 1.75e-01  1.07e-01     5s
  27   4.00133018e+05  2.84319422e+05  3.81e-01 1.62e-01  8.48e-02     5s
  28   3.72686012e+05  2.86332925e+05  2.86e-01 1.00e-01  6.16e-02     6s
  29   3.50298422e+05  2.87497105e+05  2.09e-01 6.60e-02  4.47e-02     6s
  30   3.35672463e+05  2.88256095e+05  1.59e-01 6.11e-02  3.32e-02     6s
  31   3.21796221e+05  2.88727538e+05  1.10e-01 4.52e-02  2.35e-02     6s
  32   3.19045444e+05  2.89185946e+05  1.01e-01 7.08e-02  2.03e-02     6s
  33   3.11863763e+05  2.89407846e+05  7.59e-02 5.34e-02  1.53e-02     6s
  34   3.05716808e+05  2.89589749e+05  5.45e-02 3.93e-02  1.10e-02     6s
  35   3.01778884e+05  2.89744035e+05  4.07e-02 2.90e-02  8.25e-03     6s
  36   2.98534495e+05  2.89835675e+05  2.93e-02 2.27e-02  6.02e-03     6s
  37   2.96744019e+05  2.89883858e+05  2.31e-02 1.97e-02  4.82e-03     6s
  38   2.95809606e+05  2.89984445e+05  1.98e-02 1.36e-02  3.93e-03     7s
  39   2.94765046e+05  2.90008364e+05  1.61e-02 1.20e-02  3.26e-03     7s
  40   2.93935816e+05  2.90077383e+05  1.32e-02 8.27e-03  2.55e-03     7s
  41   2.92850068e+05  2.90095113e+05  9.34e-03 7.04e-03  1.88e-03     7s
  42   2.92476093e+05  2.90125922e+05  8.02e-03 5.30e-03  1.56e-03     7s
  43   2.92117075e+05  2.90156229e+05  6.74e-03 3.50e-03  1.26e-03     7s
  44   2.91585557e+05  2.90167938e+05  4.86e-03 2.77e-03  9.23e-04     7s
  45   2.91405635e+05  2.90180138e+05  4.22e-03 2.01e-03  7.81e-04     7s
  46   2.91144483e+05  2.90186414e+05  3.29e-03 1.69e-03  6.18e-04     7s
  47   2.90881706e+05  2.90193805e+05  2.36e-03 1.29e-03  4.49e-04     7s
  48   2.90750851e+05  2.90203991e+05  1.90e-03 1.13e-03  3.40e-04     7s
  49   2.90643906e+05  2.90206524e+05  1.51e-03 9.10e-04  2.74e-04     8s
  50   2.90562333e+05  2.90211993e+05  1.22e-03 5.86e-04  2.12e-04     8s
  51   2.90467694e+05  2.90214390e+05  8.82e-04 4.67e-04  1.54e-04     8s
  52   2.90438052e+05  2.90215833e+05  7.76e-04 3.57e-04  1.34e-04     8s
  53   2.90390008e+05  2.90216976e+05  6.04e-04 3.03e-04  1.05e-04     8s
  54   2.90355044e+05  2.90218327e+05  4.78e-04 2.22e-04  8.18e-05     8s
  55   2.90310570e+05  2.90218788e+05  3.18e-04 1.98e-04  5.78e-05     8s
  56   2.90293821e+05  2.90220226e+05  2.57e-04 1.24e-04  4.42e-05     8s
  57   2.90280029e+05  2.90220852e+05  2.08e-04 8.71e-05  3.48e-05     8s
  58   2.90272471e+05  2.90221827e+05  1.80e-04 2.01e-04  2.76e-05     8s
  59   2.90269754e+05  2.90222007e+05  1.71e-04 1.50e-04  2.56e-05     9s
  60   2.90250244e+05  2.90222137e+05  9.98e-05 1.21e-04  1.56e-05     9s
  61   2.90241171e+05  2.90222205e+05  6.69e-05 1.06e-04  1.09e-05     9s
  62   2.90230279e+05  2.90222497e+05  2.74e-05 4.42e-05  4.49e-06     9s
  63   2.90226643e+05  2.90222593e+05  1.42e-05 2.70e-05  2.40e-06     9s
  64   2.90225579e+05  2.90222695e+05  1.03e-05 7.44e-06  1.52e-06     9s
  65   2.90223393e+05  2.90222713e+05  2.39e-06 4.75e-06  4.03e-07     9s
  66   2.90222892e+05  2.90222722e+05  5.43e-07 3.28e-06  1.46e-07     9s
  67   2.90222848e+05  2.90222726e+05  3.84e-07 2.64e-06  1.10e-07    10s
  68   2.90222843e+05  2.90222741e+05  4.03e-07 4.26e-07  5.46e-08    10s
  69   2.90222814e+05  2.90222743e+05  3.13e-07 1.48e-07  3.35e-08    10s
  70   2.90222813e+05  2.90222743e+05  3.10e-07 1.47e-07  3.32e-08    10s
  71   2.90222813e+05  2.90222743e+05  3.10e-07 1.46e-07  3.31e-08    10s
  72   2.90222813e+05  2.90222743e+05  3.08e-07 1.46e-07  3.31e-08    10s
  73   2.90222813e+05  2.90222743e+05  3.08e-07 1.46e-07  3.31e-08    10s
  74   2.90222813e+05  2.90222743e+05  3.08e-07 1.46e-07  3.31e-08    10s
  75   2.90222813e+05  2.90222743e+05  3.08e-07 1.46e-07  3.31e-08    11s
  76   2.90222813e+05  2.90222743e+05  3.16e-07 1.46e-07  3.31e-08    11s
  77   2.90222813e+05  2.90222743e+05  3.27e-07 1.47e-07  3.31e-08    11s
  78   2.90222813e+05  2.90222743e+05  3.19e-07 1.46e-07  3.31e-08    11s
  79   2.90222813e+05  2.90222743e+05  3.24e-07 1.46e-07  3.31e-08    11s

Barrier solved model in 79 iterations and 11.17 seconds
Optimal objective 2.90222813e+05


Root crossover log...

   17167 DPushes remaining with DInf 1.3783852e-05                11s
       0 DPushes remaining with DInf 0.0000000e+00                12s

     824 PPushes remaining with PInf 2.1919347e-06                12s
       0 PPushes remaining with PInf 0.0000000e+00                12s

  Push phase complete: Pinf 0.0000000e+00, Dinf 6.0628267e-01     12s


Root simplex log...

Iteration    Objective       Primal Inf.    Dual Inf.      Time
    3756    2.9022274e+05   0.000000e+00   6.062827e-01     12s
    3757    2.9022274e+05   0.000000e+00   0.000000e+00     12s

Solved with barrier

Root relaxation: objective 2.902227e+05, 3757 iterations, 9.58 seconds

    Nodes    |    Current Node    |     Objective Bounds      |     Work
 Expl Unexpl |  Obj  Depth IntInf | Incumbent    BestBd   Gap | It/Node Time

     0     0 290222.744    0 9590 343342.000 290222.744  15.5%     -   12s
H    0     0                    311937.00000 290222.744  6.96%     -   22s
     0     0 290224.627    0 9587 311937.000 290224.627  6.96%     -   26s
     0     0 290225.911    0 9550 311937.000 290225.911  6.96%     -   27s
     0     0 290226.351    0 9590 311937.000 290226.351  6.96%     -   28s
     0     0 290226.401    0 9589 311937.000 290226.401  6.96%     -   29s
     0     0 290232.947    0 9601 311937.000 290232.947  6.96%     -   33s
     0     0 290233.764    0 9601 311937.000 290233.764  6.96%     -   34s
     0     0 290233.764    0 9602 311937.000 290233.764  6.96%     -   35s
     0     0 290237.719    0 9560 311937.000 290237.719  6.96%     -   42s
     0     0 290238.063    0 9736 311937.000 290238.063  6.96%     -   43s
     0     0 290238.073    0 9782 311937.000 290238.073  6.96%     -   44s
     0     0 290239.828    0 9738 311937.000 290239.828  6.96%     -   52s
     0     0 290240.225    0 9754 311937.000 290240.225  6.96%     -   53s
     0     0 290240.243    0 9756 311937.000 290240.243  6.96%     -   53s
     0     0 290242.048    0 9623 311937.000 290242.048  6.95%     -   59s
     0     0 290242.201    0 9795 311937.000 290242.201  6.95%     -   60s
     0     0 290242.225    0 9627 311937.000 290242.225  6.95%     -   61s
     0     0 290242.227    0 9787 311937.000 290242.227  6.95%     -   62s
     0     0 290242.230    0 9787 311937.000 290242.230  6.95%     -   63s
     0     0 290242.230    0 9786 311937.000 290242.230  6.95%     -   65s
     0     0 290242.462    0 9573 311937.000 290242.462  6.95%     -   66s
     0     0 290242.562    0 9789 311937.000 290242.562  6.95%     -   66s
     0     0 290242.574    0 9793 311937.000 290242.574  6.95%     -   67s
     0     0 290242.576    0 9790 311937.000 290242.576  6.95%     -   69s
     0     0 290242.576    0 9792 311937.000 290242.576  6.95%     -   69s
     0     0 290242.576    0 9782 311937.000 290242.576  6.95%     -   77s
H    0     0                    311279.00000 290242.576  6.76%     -  162s
     0     2 290242.576    0 9782 311279.000 290242.576  6.76%     -  163s
     1     4 290531.239    1 9596 311279.000 290242.617  6.76% 16007  200s
     3     8 290761.687    2 9658 311279.000 290503.367  6.67% 14763  240s
     7    12 290887.105    3 10047 311279.000 290615.157  6.64% 12986  258s
    11    16 291386.973    3 9628 311279.000 290615.808  6.64% 11480  287s
    15    20 290921.069    4 9868 311279.000 290707.168  6.61% 11538  296s
    19    21 291736.335    5 7243 311279.000 290707.437  6.61%  9824  300s

Cutting planes:
  Gomory: 3
  Zero half: 59

Explored 20 nodes (199801 simplex iterations) in 300.06 seconds
Thread count was 8 (of 8 available processors)

Solution count 3: 311279 311937 343342 

Time limit reached
Best objective 3.112790000000e+05, best bound 2.907080000000e+05, gap 6.6085%

User-callback calls 21127, time in user-callback 0.14 sec
Solution written to /Users/mdeboute/Desktop/Etudes/Master/M2/S9/GOPP/Projet/multi-period-flp/solution/instMulti_I30_J250_T12_0_result.txt
